% Logging successfully configured
%%%mzn-stat: initTime=0.003367372
%%%mzn-stat: objective=995
%%%mzn-stat: nodes=1044
%%%mzn-stat: restarts=0
%%%mzn-stat: peakDepth=261
%%%mzn-stat: solveTime=0.006343737
%%%mzn-stat: variables=504
%%%mzn-stat: propagators=356
%%%mzn-stat: failures=100
%%%mzn-stat: propagations=6287
%%%mzn-stat: nogoods=100
%%%mzn-stat: numAtomicConstraintsPropagated=0
%%%mzn-stat: allDifferentNumber1TotalHallSetSize=210
%%%mzn-stat: allDifferentNumber1NumberOfConflicts=100
%%%mzn-stat: allDifferentNumber1MaxHallSetSize=12
%%%mzn-stat: allDifferentNumber1PropagationsTotal=1271
%%%mzn-stat: allDifferentNumber1PropagationsThatFoundConflict=100
%%%mzn-stat: circuitNumber2PropagationsThatFoundConflict=0
%%%mzn-stat: circuitNumber2TotalFixedEdgesAtConflict=0
%%%mzn-stat: circuitNumber2NumberOfConflicts=0
%%%mzn-stat: circuitNumber2PropagationsThatPruned=0
%%%mzn-stat: circuitNumber2PropagationsTotal=704
%%%mzn-stat: AverageConflictSize=2.09
%%%mzn-stat: NumUnitNogoodsLearned=0
%%%mzn-stat: AverageLearnedNogoodLength=2.09
%%%mzn-stat: AverageBacktrackAmount=0
%%%mzn-stat: AverageLbd=2.09
%%%mzn-stat: 2AutonomousSearchNumBackupCalled=243
%%%mzn-stat: 2AutonomousSearchNumPredicatesRemoved=0
%%%mzn-stat: 2AutonomousSearchNumCalls=244
%%%mzn-stat: 2AutonomousSearchNumPredicatesAdded=132
%%%mzn-stat: 2AutonomousSearchAverageSizeOfHeap=0.5409836065573771
%%%mzn-stat: 2AutonomousSearchNumAssignedPredicatesEncountered=132
%%%mzn-stat-end
maxleg = 995;
succ = array1d(1..20,[2, 4, 1, 5, 10, 3, 6, 7, 8, 11, 12, 15, 9, 13, 18, 14, 16, 20, 17, 19]);
% time elapsed: 6.35 s
----------
%%%mzn-stat: initTime=0.003367372
%%%mzn-stat: objective=631
%%%mzn-stat: nodes=1314
%%%mzn-stat: restarts=0
%%%mzn-stat: peakDepth=261
%%%mzn-stat: solveTime=0.007114325
%%%mzn-stat: variables=504
%%%mzn-stat: propagators=356
%%%mzn-stat: failures=119
%%%mzn-stat: propagations=7167
%%%mzn-stat: nogoods=119
%%%mzn-stat: numAtomicConstraintsPropagated=0
%%%mzn-stat: allDifferentNumber1TotalHallSetSize=257
%%%mzn-stat: allDifferentNumber1NumberOfConflicts=119
%%%mzn-stat: allDifferentNumber1MaxHallSetSize=12
%%%mzn-stat: allDifferentNumber1PropagationsTotal=1373
%%%mzn-stat: allDifferentNumber1PropagationsThatFoundConflict=119
%%%mzn-stat: circuitNumber2PropagationsThatFoundConflict=0
%%%mzn-stat: circuitNumber2TotalFixedEdgesAtConflict=0
%%%mzn-stat: circuitNumber2NumberOfConflicts=0
%%%mzn-stat: circuitNumber2PropagationsThatPruned=10
%%%mzn-stat: circuitNumber2PropagationsTotal=753
%%%mzn-stat: AverageConflictSize=2.19327731092437
%%%mzn-stat: NumUnitNogoodsLearned=0
%%%mzn-stat: AverageLearnedNogoodLength=2.4201680672268906
%%%mzn-stat: AverageBacktrackAmount=0
%%%mzn-stat: AverageLbd=2.327731092436975
%%%mzn-stat: 2AutonomousSearchNumBackupCalled=463
%%%mzn-stat: 2AutonomousSearchNumPredicatesRemoved=0
%%%mzn-stat: 2AutonomousSearchNumCalls=465
%%%mzn-stat: 2AutonomousSearchNumPredicatesAdded=248
%%%mzn-stat: 2AutonomousSearchAverageSizeOfHeap=0.789247311827957
%%%mzn-stat: 2AutonomousSearchNumAssignedPredicatesEncountered=367
%%%mzn-stat-end
maxleg = 631;
succ = array1d(1..20,[2, 4, 1, 5, 10, 3, 6, 7, 8, 11, 12, 16, 9, 15, 18, 17, 14, 19, 20, 13]);
% time elapsed: 6.35 s
----------
%%%mzn-stat: initTime=0.003367372
%%%mzn-stat: objective=629
%%%mzn-stat: nodes=1899
%%%mzn-stat: restarts=0
%%%mzn-stat: peakDepth=261
%%%mzn-stat: solveTime=0.010812611
%%%mzn-stat: variables=504
%%%mzn-stat: propagators=356
%%%mzn-stat: failures=176
%%%mzn-stat: propagations=10358
%%%mzn-stat: nogoods=176
%%%mzn-stat: numAtomicConstraintsPropagated=0
%%%mzn-stat: allDifferentNumber1TotalHallSetSize=404
%%%mzn-stat: allDifferentNumber1NumberOfConflicts=175
%%%mzn-stat: allDifferentNumber1MaxHallSetSize=12
%%%mzn-stat: allDifferentNumber1PropagationsTotal=2062
%%%mzn-stat: allDifferentNumber1PropagationsThatFoundConflict=175
%%%mzn-stat: circuitNumber2PropagationsThatFoundConflict=0
%%%mzn-stat: circuitNumber2TotalFixedEdgesAtConflict=0
%%%mzn-stat: circuitNumber2NumberOfConflicts=0
%%%mzn-stat: circuitNumber2PropagationsThatPruned=11
%%%mzn-stat: circuitNumber2PropagationsTotal=1074
%%%mzn-stat: AverageConflictSize=2.465909090909091
%%%mzn-stat: NumUnitNogoodsLearned=0
%%%mzn-stat: AverageLearnedNogoodLength=2.7670454545454546
%%%mzn-stat: AverageBacktrackAmount=0
%%%mzn-stat: AverageLbd=2.647727272727273
%%%mzn-stat: 2AutonomousSearchNumBackupCalled=675
%%%mzn-stat: 2AutonomousSearchNumPredicatesRemoved=0
%%%mzn-stat: 2AutonomousSearchNumCalls=678
%%%mzn-stat: 2AutonomousSearchNumPredicatesAdded=363
%%%mzn-stat: 2AutonomousSearchAverageSizeOfHeap=0.9513274336283186
%%%mzn-stat: 2AutonomousSearchNumAssignedPredicatesEncountered=645
%%%mzn-stat-end
maxleg = 629;
succ = array1d(1..20,[2, 5, 1, 3, 10, 7, 8, 9, 11, 12, 4, 15, 14, 16, 18, 17, 6, 19, 20, 13]);
% time elapsed: 6.35 s
----------
%%%mzn-stat: initTime=0.003367372
%%%mzn-stat: objective=611
%%%mzn-stat: nodes=2259
%%%mzn-stat: restarts=0
%%%mzn-stat: peakDepth=261
%%%mzn-stat: solveTime=0.012342414
%%%mzn-stat: variables=504
%%%mzn-stat: propagators=356
%%%mzn-stat: failures=195
%%%mzn-stat: propagations=11896
%%%mzn-stat: nogoods=195
%%%mzn-stat: numAtomicConstraintsPropagated=0
%%%mzn-stat: allDifferentNumber1TotalHallSetSize=460
%%%mzn-stat: allDifferentNumber1NumberOfConflicts=193
%%%mzn-stat: allDifferentNumber1MaxHallSetSize=12
%%%mzn-stat: allDifferentNumber1PropagationsTotal=2290
%%%mzn-stat: allDifferentNumber1PropagationsThatFoundConflict=193
%%%mzn-stat: circuitNumber2PropagationsThatFoundConflict=0
%%%mzn-stat: circuitNumber2TotalFixedEdgesAtConflict=0
%%%mzn-stat: circuitNumber2NumberOfConflicts=0
%%%mzn-stat: circuitNumber2PropagationsThatPruned=18
%%%mzn-stat: circuitNumber2PropagationsTotal=1204
%%%mzn-stat: AverageConflictSize=2.8
%%%mzn-stat: NumUnitNogoodsLearned=0
%%%mzn-stat: AverageLearnedNogoodLength=3.066666666666667
%%%mzn-stat: AverageBacktrackAmount=0
%%%mzn-stat: AverageLbd=2.8564102564102565
%%%mzn-stat: 2AutonomousSearchNumBackupCalled=896
%%%mzn-stat: 2AutonomousSearchNumPredicatesRemoved=0
%%%mzn-stat: 2AutonomousSearchNumCalls=900
%%%mzn-stat: 2AutonomousSearchNumPredicatesAdded=451
%%%mzn-stat: 2AutonomousSearchAverageSizeOfHeap=1.0477777777777777
%%%mzn-stat: 2AutonomousSearchNumAssignedPredicatesEncountered=943
%%%mzn-stat-end
maxleg = 611;
succ = array1d(1..20,[2, 5, 1, 10, 4, 3, 6, 7, 8, 11, 12, 16, 9, 15, 18, 17, 14, 19, 20, 13]);
% time elapsed: 6.35 s
----------
%%%mzn-stat: initTime=0.003367372
%%%mzn-stat: objective=610
%%%mzn-stat: nodes=2752
%%%mzn-stat: restarts=0
%%%mzn-stat: peakDepth=261
%%%mzn-stat: solveTime=0.015088793
%%%mzn-stat: variables=504
%%%mzn-stat: propagators=356
%%%mzn-stat: failures=227
%%%mzn-stat: propagations=14242
%%%mzn-stat: nogoods=227
%%%mzn-stat: numAtomicConstraintsPropagated=0
%%%mzn-stat: allDifferentNumber1TotalHallSetSize=533
%%%mzn-stat: allDifferentNumber1NumberOfConflicts=225
%%%mzn-stat: allDifferentNumber1MaxHallSetSize=12
%%%mzn-stat: allDifferentNumber1PropagationsTotal=2709
%%%mzn-stat: allDifferentNumber1PropagationsThatFoundConflict=225
%%%mzn-stat: circuitNumber2PropagationsThatFoundConflict=0
%%%mzn-stat: circuitNumber2TotalFixedEdgesAtConflict=0
%%%mzn-stat: circuitNumber2NumberOfConflicts=0
%%%mzn-stat: circuitNumber2PropagationsThatPruned=19
%%%mzn-stat: circuitNumber2PropagationsTotal=1444
%%%mzn-stat: AverageConflictSize=2.7444933920704844
%%%mzn-stat: NumUnitNogoodsLearned=0
%%%mzn-stat: AverageLearnedNogoodLength=3.0176211453744495
%%%mzn-stat: AverageBacktrackAmount=0
%%%mzn-stat: AverageLbd=2.8325991189427313
%%%mzn-stat: 2AutonomousSearchNumBackupCalled=1122
%%%mzn-stat: 2AutonomousSearchNumPredicatesRemoved=0
%%%mzn-stat: 2AutonomousSearchNumCalls=1127
%%%mzn-stat: 2AutonomousSearchNumPredicatesAdded=524
%%%mzn-stat: 2AutonomousSearchAverageSizeOfHeap=1.1064773735581188
%%%mzn-stat: 2AutonomousSearchNumAssignedPredicatesEncountered=1247
%%%mzn-stat-end
maxleg = 610;
succ = array1d(1..20,[2, 6, 1, 5, 3, 7, 8, 9, 11, 4, 12, 15, 14, 16, 18, 17, 10, 19, 20, 13]);
% time elapsed: 6.36 s
----------
%%%mzn-stat: initTime=0.003367372
%%%mzn-stat: objective=567
%%%mzn-stat: nodes=2979
%%%mzn-stat: restarts=0
%%%mzn-stat: peakDepth=261
%%%mzn-stat: solveTime=0.01540978
%%%mzn-stat: variables=504
%%%mzn-stat: propagators=356
%%%mzn-stat: failures=229
%%%mzn-stat: propagations=14858
%%%mzn-stat: nogoods=229
%%%mzn-stat: numAtomicConstraintsPropagated=0
%%%mzn-stat: allDifferentNumber1TotalHallSetSize=537
%%%mzn-stat: allDifferentNumber1NumberOfConflicts=227
%%%mzn-stat: allDifferentNumber1MaxHallSetSize=12
%%%mzn-stat: allDifferentNumber1PropagationsTotal=2743
%%%mzn-stat: allDifferentNumber1PropagationsThatFoundConflict=227
%%%mzn-stat: circuitNumber2PropagationsThatFoundConflict=0
%%%mzn-stat: circuitNumber2TotalFixedEdgesAtConflict=0
%%%mzn-stat: circuitNumber2NumberOfConflicts=0
%%%mzn-stat: circuitNumber2PropagationsThatPruned=19
%%%mzn-stat: circuitNumber2PropagationsTotal=1463
%%%mzn-stat: AverageConflictSize=2.7379912663755457
%%%mzn-stat: NumUnitNogoodsLearned=0
%%%mzn-stat: AverageLearnedNogoodLength=3.0087336244541483
%%%mzn-stat: AverageBacktrackAmount=0
%%%mzn-stat: AverageLbd=2.8253275109170306
%%%mzn-stat: 2AutonomousSearchNumBackupCalled=1327
%%%mzn-stat: 2AutonomousSearchNumPredicatesRemoved=0
%%%mzn-stat: 2AutonomousSearchNumCalls=1333
%%%mzn-stat: 2AutonomousSearchNumPredicatesAdded=528
%%%mzn-stat: 2AutonomousSearchAverageSizeOfHeap=1.164291072768192
%%%mzn-stat: 2AutonomousSearchNumAssignedPredicatesEncountered=1552
%%%mzn-stat-end
maxleg = 567;
succ = array1d(1..20,[2, 6, 1, 5, 3, 7, 8, 9, 11, 4, 12, 15, 14, 16, 19, 17, 10, 20, 18, 13]);
% time elapsed: 6.36 s
----------
%%%mzn-stat: initTime=0.003367372
%%%mzn-stat: objective=545
%%%mzn-stat: nodes=3202
%%%mzn-stat: restarts=0
%%%mzn-stat: peakDepth=261
%%%mzn-stat: solveTime=0.016044229
%%%mzn-stat: variables=504
%%%mzn-stat: propagators=356
%%%mzn-stat: failures=238
%%%mzn-stat: propagations=15661
%%%mzn-stat: nogoods=238
%%%mzn-stat: numAtomicConstraintsPropagated=0
%%%mzn-stat: allDifferentNumber1TotalHallSetSize=565
%%%mzn-stat: allDifferentNumber1NumberOfConflicts=234
%%%mzn-stat: allDifferentNumber1MaxHallSetSize=12
%%%mzn-stat: allDifferentNumber1PropagationsTotal=2805
%%%mzn-stat: allDifferentNumber1PropagationsThatFoundConflict=234
%%%mzn-stat: circuitNumber2PropagationsThatFoundConflict=2
%%%mzn-stat: circuitNumber2TotalFixedEdgesAtConflict=32
%%%mzn-stat: circuitNumber2NumberOfConflicts=2
%%%mzn-stat: circuitNumber2PropagationsThatPruned=21
%%%mzn-stat: circuitNumber2PropagationsTotal=1495
%%%mzn-stat: AverageConflictSize=3.008403361344538
%%%mzn-stat: NumUnitNogoodsLearned=0
%%%mzn-stat: AverageLearnedNogoodLength=3.319327731092437
%%%mzn-stat: AverageBacktrackAmount=0
%%%mzn-stat: AverageLbd=3.0294117647058822
%%%mzn-stat: 2AutonomousSearchNumBackupCalled=1518
%%%mzn-stat: 2AutonomousSearchNumPredicatesRemoved=0
%%%mzn-stat: 2AutonomousSearchNumCalls=1525
%%%mzn-stat: 2AutonomousSearchNumPredicatesAdded=609
%%%mzn-stat: 2AutonomousSearchAverageSizeOfHeap=1.2242622950819673
%%%mzn-stat: 2AutonomousSearchNumAssignedPredicatesEncountered=1867
%%%mzn-stat-end
maxleg = 545;
succ = array1d(1..20,[2, 6, 1, 5, 3, 7, 8, 9, 11, 4, 12, 16, 15, 13, 19, 17, 14, 10, 20, 18]);
% time elapsed: 6.36 s
----------
%%%mzn-stat: initTime=0.003367372
%%%mzn-stat: objective=520
%%%mzn-stat: nodes=3412
%%%mzn-stat: restarts=0
%%%mzn-stat: peakDepth=261
%%%mzn-stat: solveTime=0.016398742
%%%mzn-stat: variables=504
%%%mzn-stat: propagators=356
%%%mzn-stat: failures=240
%%%mzn-stat: propagations=16380
%%%mzn-stat: nogoods=240
%%%mzn-stat: numAtomicConstraintsPropagated=0
%%%mzn-stat: allDifferentNumber1TotalHallSetSize=569
%%%mzn-stat: allDifferentNumber1NumberOfConflicts=236
%%%mzn-stat: allDifferentNumber1MaxHallSetSize=12
%%%mzn-stat: allDifferentNumber1PropagationsTotal=2844
%%%mzn-stat: allDifferentNumber1PropagationsThatFoundConflict=236
%%%mzn-stat: circuitNumber2PropagationsThatFoundConflict=2
%%%mzn-stat: circuitNumber2TotalFixedEdgesAtConflict=32
%%%mzn-stat: circuitNumber2NumberOfConflicts=2
%%%mzn-stat: circuitNumber2PropagationsThatPruned=24
%%%mzn-stat: circuitNumber2PropagationsTotal=1519
%%%mzn-stat: AverageConflictSize=3
%%%mzn-stat: NumUnitNogoodsLearned=0
%%%mzn-stat: AverageLearnedNogoodLength=3.3125
%%%mzn-stat: AverageBacktrackAmount=0
%%%mzn-stat: AverageLbd=3.025
%%%mzn-stat: 2AutonomousSearchNumBackupCalled=1704
%%%mzn-stat: 2AutonomousSearchNumPredicatesRemoved=0
%%%mzn-stat: 2AutonomousSearchNumCalls=1712
%%%mzn-stat: 2AutonomousSearchNumPredicatesAdded=620
%%%mzn-stat: 2AutonomousSearchAverageSizeOfHeap=1.27803738317757
%%%mzn-stat: 2AutonomousSearchNumAssignedPredicatesEncountered=2188
%%%mzn-stat-end
maxleg = 520;
succ = array1d(1..20,[2, 6, 1, 5, 3, 7, 8, 9, 11, 4, 12, 16, 15, 13, 20, 17, 14, 19, 10, 18]);
% time elapsed: 6.36 s
----------
%%%mzn-stat: initTime=0.003367372
%%%mzn-stat: objective=515
%%%mzn-stat: nodes=3614
%%%mzn-stat: restarts=0
%%%mzn-stat: peakDepth=261
%%%mzn-stat: solveTime=0.016784592
%%%mzn-stat: variables=504
%%%mzn-stat: propagators=356
%%%mzn-stat: failures=243
%%%mzn-stat: propagations=17100
%%%mzn-stat: nogoods=243
%%%mzn-stat: numAtomicConstraintsPropagated=0
%%%mzn-stat: allDifferentNumber1TotalHallSetSize=580
%%%mzn-stat: allDifferentNumber1NumberOfConflicts=239
%%%mzn-stat: allDifferentNumber1MaxHallSetSize=12
%%%mzn-stat: allDifferentNumber1PropagationsTotal=2883
%%%mzn-stat: allDifferentNumber1PropagationsThatFoundConflict=239
%%%mzn-stat: circuitNumber2PropagationsThatFoundConflict=2
%%%mzn-stat: circuitNumber2TotalFixedEdgesAtConflict=32
%%%mzn-stat: circuitNumber2NumberOfConflicts=2
%%%mzn-stat: circuitNumber2PropagationsThatPruned=27
%%%mzn-stat: circuitNumber2PropagationsTotal=1544
%%%mzn-stat: AverageConflictSize=3.0082304526748973
%%%mzn-stat: NumUnitNogoodsLearned=0
%%%mzn-stat: AverageLearnedNogoodLength=3.3415637860082303
%%%mzn-stat: AverageBacktrackAmount=0
%%%mzn-stat: AverageLbd=3.0246913580246915
%%%mzn-stat: 2AutonomousSearchNumBackupCalled=1882
%%%mzn-stat: 2AutonomousSearchNumPredicatesRemoved=0
%%%mzn-stat: 2AutonomousSearchNumCalls=1891
%%%mzn-stat: 2AutonomousSearchNumPredicatesAdded=651
%%%mzn-stat: 2AutonomousSearchAverageSizeOfHeap=1.3289264939185617
%%%mzn-stat: 2AutonomousSearchNumAssignedPredicatesEncountered=2513
%%%mzn-stat-end
maxleg = 515;
succ = array1d(1..20,[2, 6, 1, 5, 3, 7, 8, 9, 11, 4, 12, 18, 14, 17, 13, 10, 16, 19, 20, 15]);
% time elapsed: 6.36 s
----------
%%%mzn-stat: initTime=0.003367372
%%%mzn-stat: objective=509
%%%mzn-stat: nodes=3844
%%%mzn-stat: restarts=0
%%%mzn-stat: peakDepth=261
%%%mzn-stat: solveTime=0.017851605
%%%mzn-stat: variables=504
%%%mzn-stat: propagators=356
%%%mzn-stat: failures=263
%%%mzn-stat: propagations=18360
%%%mzn-stat: nogoods=263
%%%mzn-stat: numAtomicConstraintsPropagated=0
%%%mzn-stat: allDifferentNumber1TotalHallSetSize=665
%%%mzn-stat: allDifferentNumber1NumberOfConflicts=259
%%%mzn-stat: allDifferentNumber1MaxHallSetSize=12
%%%mzn-stat: allDifferentNumber1PropagationsTotal=3000
%%%mzn-stat: allDifferentNumber1PropagationsThatFoundConflict=259
%%%mzn-stat: circuitNumber2PropagationsThatFoundConflict=2
%%%mzn-stat: circuitNumber2TotalFixedEdgesAtConflict=32
%%%mzn-stat: circuitNumber2NumberOfConflicts=2
%%%mzn-stat: circuitNumber2PropagationsThatPruned=39
%%%mzn-stat: circuitNumber2PropagationsTotal=1601
%%%mzn-stat: AverageConflictSize=3.653992395437262
%%%mzn-stat: NumUnitNogoodsLearned=0
%%%mzn-stat: AverageLearnedNogoodLength=3.946768060836502
%%%mzn-stat: AverageBacktrackAmount=0
%%%mzn-stat: AverageLbd=3.2281368821292777
%%%mzn-stat: 2AutonomousSearchNumBackupCalled=2059
%%%mzn-stat: 2AutonomousSearchNumPredicatesRemoved=0
%%%mzn-stat: 2AutonomousSearchNumCalls=2069
%%%mzn-stat: 2AutonomousSearchNumPredicatesAdded=757
%%%mzn-stat: 2AutonomousSearchAverageSizeOfHeap=1.387626872885452
%%%mzn-stat: 2AutonomousSearchNumAssignedPredicatesEncountered=2871
%%%mzn-stat-end
maxleg = 509;
succ = array1d(1..20,[2, 6, 1, 5, 10, 7, 8, 9, 11, 3, 16, 4, 15, 13, 20, 17, 14, 12, 18, 19]);
% time elapsed: 6.36 s
----------
%%%mzn-stat: initTime=0.003367372
%%%mzn-stat: objective=506
%%%mzn-stat: nodes=4070
%%%mzn-stat: restarts=0
%%%mzn-stat: peakDepth=261
%%%mzn-stat: solveTime=0.019031377
%%%mzn-stat: variables=504
%%%mzn-stat: propagators=356
%%%mzn-stat: failures=283
%%%mzn-stat: propagations=19810
%%%mzn-stat: nogoods=283
%%%mzn-stat: numAtomicConstraintsPropagated=0
%%%mzn-stat: allDifferentNumber1TotalHallSetSize=750
%%%mzn-stat: allDifferentNumber1NumberOfConflicts=279
%%%mzn-stat: allDifferentNumber1MaxHallSetSize=12
%%%mzn-stat: allDifferentNumber1PropagationsTotal=3143
%%%mzn-stat: allDifferentNumber1PropagationsThatFoundConflict=279
%%%mzn-stat: circuitNumber2PropagationsThatFoundConflict=2
%%%mzn-stat: circuitNumber2TotalFixedEdgesAtConflict=32
%%%mzn-stat: circuitNumber2NumberOfConflicts=2
%%%mzn-stat: circuitNumber2PropagationsThatPruned=52
%%%mzn-stat: circuitNumber2PropagationsTotal=1670
%%%mzn-stat: AverageConflictSize=4.123674911660777
%%%mzn-stat: NumUnitNogoodsLearned=0
%%%mzn-stat: AverageLearnedNogoodLength=4.544169611307421
%%%mzn-stat: AverageBacktrackAmount=0
%%%mzn-stat: AverageLbd=3.409893992932862
%%%mzn-stat: 2AutonomousSearchNumBackupCalled=2218
%%%mzn-stat: 2AutonomousSearchNumPredicatesRemoved=0
%%%mzn-stat: 2AutonomousSearchNumCalls=2229
%%%mzn-stat: 2AutonomousSearchNumPredicatesAdded=875
%%%mzn-stat: 2AutonomousSearchAverageSizeOfHeap=1.4508748317631224
%%%mzn-stat: 2AutonomousSearchNumAssignedPredicatesEncountered=3234
%%%mzn-stat-end
maxleg = 506;
succ = array1d(1..20,[2, 6, 1, 5, 10, 7, 8, 13, 3, 11, 16, 4, 15, 9, 20, 17, 14, 12, 18, 19]);
% time elapsed: 6.36 s
----------
%%%mzn-stat: initTime=0.003367372
%%%mzn-stat: objective=499
%%%mzn-stat: nodes=4253
%%%mzn-stat: restarts=0
%%%mzn-stat: peakDepth=261
%%%mzn-stat: solveTime=0.019338102
%%%mzn-stat: variables=504
%%%mzn-stat: propagators=356
%%%mzn-stat: failures=283
%%%mzn-stat: propagations=20451
%%%mzn-stat: nogoods=283
%%%mzn-stat: numAtomicConstraintsPropagated=0
%%%mzn-stat: allDifferentNumber1TotalHallSetSize=750
%%%mzn-stat: allDifferentNumber1NumberOfConflicts=279
%%%mzn-stat: allDifferentNumber1MaxHallSetSize=12
%%%mzn-stat: allDifferentNumber1PropagationsTotal=3172
%%%mzn-stat: allDifferentNumber1PropagationsThatFoundConflict=279
%%%mzn-stat: circuitNumber2PropagationsThatFoundConflict=2
%%%mzn-stat: circuitNumber2TotalFixedEdgesAtConflict=32
%%%mzn-stat: circuitNumber2NumberOfConflicts=2
%%%mzn-stat: circuitNumber2PropagationsThatPruned=54
%%%mzn-stat: circuitNumber2PropagationsTotal=1687
%%%mzn-stat: AverageConflictSize=4.123674911660777
%%%mzn-stat: NumUnitNogoodsLearned=0
%%%mzn-stat: AverageLearnedNogoodLength=4.544169611307421
%%%mzn-stat: AverageBacktrackAmount=0
%%%mzn-stat: AverageLbd=3.409893992932862
%%%mzn-stat: 2AutonomousSearchNumBackupCalled=2385
%%%mzn-stat: 2AutonomousSearchNumPredicatesRemoved=0
%%%mzn-stat: 2AutonomousSearchNumCalls=2397
%%%mzn-stat: 2AutonomousSearchNumPredicatesAdded=875
%%%mzn-stat: 2AutonomousSearchAverageSizeOfHeap=1.5006257822277846
%%%mzn-stat: 2AutonomousSearchNumAssignedPredicatesEncountered=3597
%%%mzn-stat-end
maxleg = 499;
succ = array1d(1..20,[2, 6, 1, 5, 10, 7, 8, 13, 3, 11, 16, 4, 15, 9, 20, 17, 14, 19, 12, 18]);
% time elapsed: 6.36 s
----------
%%%mzn-stat: initTime=0.003367372
%%%mzn-stat: objective=480
%%%mzn-stat: nodes=4483
%%%mzn-stat: restarts=0
%%%mzn-stat: peakDepth=261
%%%mzn-stat: solveTime=0.021169895
%%%mzn-stat: variables=504
%%%mzn-stat: propagators=356
%%%mzn-stat: failures=302
%%%mzn-stat: propagations=21863
%%%mzn-stat: nogoods=302
%%%mzn-stat: numAtomicConstraintsPropagated=0
%%%mzn-stat: allDifferentNumber1TotalHallSetSize=821
%%%mzn-stat: allDifferentNumber1NumberOfConflicts=298
%%%mzn-stat: allDifferentNumber1MaxHallSetSize=12
%%%mzn-stat: allDifferentNumber1PropagationsTotal=3310
%%%mzn-stat: allDifferentNumber1PropagationsThatFoundConflict=298
%%%mzn-stat: circuitNumber2PropagationsThatFoundConflict=2
%%%mzn-stat: circuitNumber2TotalFixedEdgesAtConflict=32
%%%mzn-stat: circuitNumber2NumberOfConflicts=2
%%%mzn-stat: circuitNumber2PropagationsThatPruned=64
%%%mzn-stat: circuitNumber2PropagationsTotal=1764
%%%mzn-stat: AverageConflictSize=4.2052980132450335
%%%mzn-stat: NumUnitNogoodsLearned=0
%%%mzn-stat: AverageLearnedNogoodLength=4.735099337748345
%%%mzn-stat: AverageBacktrackAmount=0
%%%mzn-stat: AverageLbd=3.506622516556291
%%%mzn-stat: 2AutonomousSearchNumBackupCalled=2538
%%%mzn-stat: 2AutonomousSearchNumPredicatesRemoved=0
%%%mzn-stat: 2AutonomousSearchNumCalls=2551
%%%mzn-stat: 2AutonomousSearchNumPredicatesAdded=966
%%%mzn-stat: 2AutonomousSearchAverageSizeOfHeap=1.5570364562916503
%%%mzn-stat: 2AutonomousSearchNumAssignedPredicatesEncountered=3972
%%%mzn-stat-end
maxleg = 480;
succ = array1d(1..20,[2, 6, 1, 5, 10, 7, 8, 14, 3, 11, 19, 4, 9, 17, 13, 12, 16, 20, 18, 15]);
% time elapsed: 6.37 s
----------
%%%mzn-stat: initTime=0.003367372
%%%mzn-stat: objective=471
%%%mzn-stat: nodes=4671
%%%mzn-stat: restarts=0
%%%mzn-stat: peakDepth=261
%%%mzn-stat: solveTime=0.021950154
%%%mzn-stat: variables=504
%%%mzn-stat: propagators=356
%%%mzn-stat: failures=314
%%%mzn-stat: propagations=22907
%%%mzn-stat: nogoods=314
%%%mzn-stat: numAtomicConstraintsPropagated=0
%%%mzn-stat: allDifferentNumber1TotalHallSetSize=856
%%%mzn-stat: allDifferentNumber1NumberOfConflicts=309
%%%mzn-stat: allDifferentNumber1MaxHallSetSize=12
%%%mzn-stat: allDifferentNumber1PropagationsTotal=3388
%%%mzn-stat: allDifferentNumber1PropagationsThatFoundConflict=309
%%%mzn-stat: circuitNumber2PropagationsThatFoundConflict=2
%%%mzn-stat: circuitNumber2TotalFixedEdgesAtConflict=32
%%%mzn-stat: circuitNumber2NumberOfConflicts=2
%%%mzn-stat: circuitNumber2PropagationsThatPruned=74
%%%mzn-stat: circuitNumber2PropagationsTotal=1811
%%%mzn-stat: AverageConflictSize=4.187898089171974
%%%mzn-stat: NumUnitNogoodsLearned=0
%%%mzn-stat: AverageLearnedNogoodLength=4.872611464968153
%%%mzn-stat: AverageBacktrackAmount=0
%%%mzn-stat: AverageLbd=3.56687898089172
%%%mzn-stat: 2AutonomousSearchNumBackupCalled=2683
%%%mzn-stat: 2AutonomousSearchNumPredicatesRemoved=0
%%%mzn-stat: 2AutonomousSearchNumCalls=2697
%%%mzn-stat: 2AutonomousSearchNumPredicatesAdded=1111
%%%mzn-stat: 2AutonomousSearchAverageSizeOfHeap=1.628846866889136
%%%mzn-stat: 2AutonomousSearchNumAssignedPredicatesEncountered=4393
%%%mzn-stat-end
maxleg = 471;
succ = array1d(1..20,[2, 6, 1, 5, 10, 7, 8, 14, 3, 12, 4, 19, 9, 17, 13, 11, 16, 20, 18, 15]);
% time elapsed: 6.37 s
----------
%%%mzn-stat: initTime=0.003367372
%%%mzn-stat: objective=464
%%%mzn-stat: nodes=4862
%%%mzn-stat: restarts=0
%%%mzn-stat: peakDepth=261
%%%mzn-stat: solveTime=0.023152736
%%%mzn-stat: variables=504
%%%mzn-stat: propagators=356
%%%mzn-stat: failures=333
%%%mzn-stat: propagations=24094
%%%mzn-stat: nogoods=333
%%%mzn-stat: numAtomicConstraintsPropagated=0
%%%mzn-stat: allDifferentNumber1TotalHallSetSize=915
%%%mzn-stat: allDifferentNumber1NumberOfConflicts=324
%%%mzn-stat: allDifferentNumber1MaxHallSetSize=12
%%%mzn-stat: allDifferentNumber1PropagationsTotal=3469
%%%mzn-stat: allDifferentNumber1PropagationsThatFoundConflict=324
%%%mzn-stat: circuitNumber2PropagationsThatFoundConflict=5
%%%mzn-stat: circuitNumber2TotalFixedEdgesAtConflict=83
%%%mzn-stat: circuitNumber2NumberOfConflicts=5
%%%mzn-stat: circuitNumber2PropagationsThatPruned=80
%%%mzn-stat: circuitNumber2PropagationsTotal=1849
%%%mzn-stat: AverageConflictSize=4.57057057057057
%%%mzn-stat: NumUnitNogoodsLearned=0
%%%mzn-stat: AverageLearnedNogoodLength=5.717717717717718
%%%mzn-stat: AverageBacktrackAmount=0
%%%mzn-stat: AverageLbd=3.765765765765766
%%%mzn-stat: 2AutonomousSearchNumBackupCalled=2835
%%%mzn-stat: 2AutonomousSearchNumPredicatesRemoved=0
%%%mzn-stat: 2AutonomousSearchNumCalls=2850
%%%mzn-stat: 2AutonomousSearchNumPredicatesAdded=1376
%%%mzn-stat: 2AutonomousSearchAverageSizeOfHeap=1.715438596491228
%%%mzn-stat: 2AutonomousSearchNumAssignedPredicatesEncountered=4889
%%%mzn-stat-end
maxleg = 464;
succ = array1d(1..20,[2, 6, 1, 5, 10, 7, 8, 14, 13, 11, 9, 4, 15, 17, 20, 12, 16, 3, 18, 19]);
% time elapsed: 6.37 s
----------
%%%mzn-stat: initTime=0.003367372
%%%mzn-stat: objective=455
%%%mzn-stat: nodes=5150
%%%mzn-stat: restarts=0
%%%mzn-stat: peakDepth=261
%%%mzn-stat: solveTime=0.029315279
%%%mzn-stat: variables=504
%%%mzn-stat: propagators=356
%%%mzn-stat: failures=433
%%%mzn-stat: propagations=28168
%%%mzn-stat: nogoods=433
%%%mzn-stat: numAtomicConstraintsPropagated=0
%%%mzn-stat: allDifferentNumber1TotalHallSetSize=1417
%%%mzn-stat: allDifferentNumber1NumberOfConflicts=407
%%%mzn-stat: allDifferentNumber1MaxHallSetSize=13
%%%mzn-stat: allDifferentNumber1PropagationsTotal=3835
%%%mzn-stat: allDifferentNumber1PropagationsThatFoundConflict=407
%%%mzn-stat: circuitNumber2PropagationsThatFoundConflict=17
%%%mzn-stat: circuitNumber2TotalFixedEdgesAtConflict=288
%%%mzn-stat: circuitNumber2NumberOfConflicts=17
%%%mzn-stat: circuitNumber2PropagationsThatPruned=121
%%%mzn-stat: circuitNumber2PropagationsTotal=2030
%%%mzn-stat: AverageConflictSize=7.369515011547344
%%%mzn-stat: NumUnitNogoodsLearned=0
%%%mzn-stat: AverageLearnedNogoodLength=10.725173210161662
%%%mzn-stat: AverageBacktrackAmount=0
%%%mzn-stat: AverageLbd=4.720554272517321
%%%mzn-stat: 2AutonomousSearchNumBackupCalled=2982
%%%mzn-stat: 2AutonomousSearchNumPredicatesRemoved=0
%%%mzn-stat: 2AutonomousSearchNumCalls=2998
%%%mzn-stat: 2AutonomousSearchNumPredicatesAdded=1756
%%%mzn-stat: 2AutonomousSearchAverageSizeOfHeap=1.8232154769846565
%%%mzn-stat: 2AutonomousSearchNumAssignedPredicatesEncountered=5466
%%%mzn-stat-end
maxleg = 455;
succ = array1d(1..20,[2, 6, 1, 5, 10, 7, 11, 14, 13, 16, 12, 4, 15, 9, 20, 17, 8, 3, 18, 19]);
% time elapsed: 6.38 s
----------
%%%mzn-stat: initTime=0.003367372
%%%mzn-stat: objective=443
%%%mzn-stat: nodes=5293
%%%mzn-stat: restarts=0
%%%mzn-stat: peakDepth=261
%%%mzn-stat: solveTime=0.029642387
%%%mzn-stat: variables=504
%%%mzn-stat: propagators=356
%%%mzn-stat: failures=433
%%%mzn-stat: propagations=28829
%%%mzn-stat: nogoods=433
%%%mzn-stat: numAtomicConstraintsPropagated=0
%%%mzn-stat: allDifferentNumber1TotalHallSetSize=1417
%%%mzn-stat: allDifferentNumber1NumberOfConflicts=407
%%%mzn-stat: allDifferentNumber1MaxHallSetSize=13
%%%mzn-stat: allDifferentNumber1PropagationsTotal=3858
%%%mzn-stat: allDifferentNumber1PropagationsThatFoundConflict=407
%%%mzn-stat: circuitNumber2PropagationsThatFoundConflict=17
%%%mzn-stat: circuitNumber2TotalFixedEdgesAtConflict=288
%%%mzn-stat: circuitNumber2NumberOfConflicts=17
%%%mzn-stat: circuitNumber2PropagationsThatPruned=124
%%%mzn-stat: circuitNumber2PropagationsTotal=2045
%%%mzn-stat: AverageConflictSize=7.369515011547344
%%%mzn-stat: NumUnitNogoodsLearned=0
%%%mzn-stat: AverageLearnedNogoodLength=10.725173210161662
%%%mzn-stat: AverageBacktrackAmount=0
%%%mzn-stat: AverageLbd=4.720554272517321
%%%mzn-stat: 2AutonomousSearchNumBackupCalled=3113
%%%mzn-stat: 2AutonomousSearchNumPredicatesRemoved=0
%%%mzn-stat: 2AutonomousSearchNumCalls=3130
%%%mzn-stat: 2AutonomousSearchNumPredicatesAdded=1756
%%%mzn-stat: 2AutonomousSearchAverageSizeOfHeap=1.9306709265175719
%%%mzn-stat: 2AutonomousSearchNumAssignedPredicatesEncountered=6043
%%%mzn-stat-end
maxleg = 443;
succ = array1d(1..20,[2, 6, 1, 5, 10, 7, 11, 14, 13, 16, 12, 4, 15, 9, 20, 17, 8, 19, 3, 18]);
% time elapsed: 6.38 s
----------
%%%mzn-stat: initTime=0.003367372
%%%mzn-stat: objective=438
%%%mzn-stat: nodes=5586
%%%mzn-stat: restarts=0
%%%mzn-stat: peakDepth=261
%%%mzn-stat: solveTime=0.037907881
%%%mzn-stat: variables=504
%%%mzn-stat: propagators=356
%%%mzn-stat: failures=561
%%%mzn-stat: propagations=34762
%%%mzn-stat: nogoods=561
%%%mzn-stat: numAtomicConstraintsPropagated=0
%%%mzn-stat: allDifferentNumber1TotalHallSetSize=2072
%%%mzn-stat: allDifferentNumber1NumberOfConflicts=507
%%%mzn-stat: allDifferentNumber1MaxHallSetSize=13
%%%mzn-stat: allDifferentNumber1PropagationsTotal=4306
%%%mzn-stat: allDifferentNumber1PropagationsThatFoundConflict=507
%%%mzn-stat: circuitNumber2PropagationsThatFoundConflict=38
%%%mzn-stat: circuitNumber2TotalFixedEdgesAtConflict=605
%%%mzn-stat: circuitNumber2NumberOfConflicts=38
%%%mzn-stat: circuitNumber2PropagationsThatPruned=184
%%%mzn-stat: circuitNumber2PropagationsTotal=2268
%%%mzn-stat: AverageConflictSize=9.72549019607843
%%%mzn-stat: NumUnitNogoodsLearned=0
%%%mzn-stat: AverageLearnedNogoodLength=15.431372549019608
%%%mzn-stat: AverageBacktrackAmount=0
%%%mzn-stat: AverageLbd=5.418894830659537
%%%mzn-stat: 2AutonomousSearchNumBackupCalled=3233
%%%mzn-stat: 2AutonomousSearchNumPredicatesRemoved=0
%%%mzn-stat: 2AutonomousSearchNumCalls=3251
%%%mzn-stat: 2AutonomousSearchNumPredicatesAdded=2183
%%%mzn-stat: 2AutonomousSearchAverageSizeOfHeap=2.0575207628422025
%%%mzn-stat: 2AutonomousSearchNumAssignedPredicatesEncountered=6689
%%%mzn-stat-end
maxleg = 438;
succ = array1d(1..20,[2, 6, 1, 5, 10, 8, 12, 14, 13, 11, 9, 4, 15, 17, 20, 7, 16, 19, 3, 18]);
% time elapsed: 6.38 s
----------
%%%mzn-stat: initTime=0.003367372
%%%mzn-stat: objective=427
%%%mzn-stat: nodes=5749
%%%mzn-stat: restarts=0
%%%mzn-stat: peakDepth=261
%%%mzn-stat: solveTime=0.039514966
%%%mzn-stat: variables=504
%%%mzn-stat: propagators=356
%%%mzn-stat: failures=575
%%%mzn-stat: propagations=36066
%%%mzn-stat: nogoods=575
%%%mzn-stat: numAtomicConstraintsPropagated=0
%%%mzn-stat: allDifferentNumber1TotalHallSetSize=2122
%%%mzn-stat: allDifferentNumber1NumberOfConflicts=519
%%%mzn-stat: allDifferentNumber1MaxHallSetSize=13
%%%mzn-stat: allDifferentNumber1PropagationsTotal=4398
%%%mzn-stat: allDifferentNumber1PropagationsThatFoundConflict=519
%%%mzn-stat: circuitNumber2PropagationsThatFoundConflict=40
%%%mzn-stat: circuitNumber2TotalFixedEdgesAtConflict=629
%%%mzn-stat: circuitNumber2NumberOfConflicts=40
%%%mzn-stat: circuitNumber2PropagationsThatPruned=196
%%%mzn-stat: circuitNumber2PropagationsTotal=2316
%%%mzn-stat: AverageConflictSize=9.740869565217391
%%%mzn-stat: NumUnitNogoodsLearned=0
%%%mzn-stat: AverageLearnedNogoodLength=15.525217391304349
%%%mzn-stat: AverageBacktrackAmount=0
%%%mzn-stat: AverageLbd=5.43304347826087
%%%mzn-stat: 2AutonomousSearchNumBackupCalled=3358
%%%mzn-stat: 2AutonomousSearchNumPredicatesRemoved=0
%%%mzn-stat: 2AutonomousSearchNumCalls=3377
%%%mzn-stat: 2AutonomousSearchNumPredicatesAdded=2415
%%%mzn-stat: 2AutonomousSearchAverageSizeOfHeap=2.172342315664791
%%%mzn-stat: 2AutonomousSearchNumAssignedPredicatesEncountered=7336
%%%mzn-stat-end
maxleg = 427;
succ = array1d(1..20,[2, 6, 1, 5, 10, 9, 8, 16, 11, 7, 12, 4, 15, 13, 20, 17, 14, 19, 3, 18]);
% time elapsed: 6.39 s
----------
%%%mzn-stat: initTime=0.003367372
%%%mzn-stat: objective=426
%%%mzn-stat: nodes=5932
%%%mzn-stat: restarts=0
%%%mzn-stat: peakDepth=261
%%%mzn-stat: solveTime=0.042564198
%%%mzn-stat: variables=504
%%%mzn-stat: propagators=356
%%%mzn-stat: failures=617
%%%mzn-stat: propagations=38848
%%%mzn-stat: nogoods=617
%%%mzn-stat: numAtomicConstraintsPropagated=0
%%%mzn-stat: allDifferentNumber1TotalHallSetSize=2254
%%%mzn-stat: allDifferentNumber1NumberOfConflicts=550
%%%mzn-stat: allDifferentNumber1MaxHallSetSize=13
%%%mzn-stat: allDifferentNumber1PropagationsTotal=4568
%%%mzn-stat: allDifferentNumber1PropagationsThatFoundConflict=550
%%%mzn-stat: circuitNumber2PropagationsThatFoundConflict=48
%%%mzn-stat: circuitNumber2TotalFixedEdgesAtConflict=752
%%%mzn-stat: circuitNumber2NumberOfConflicts=48
%%%mzn-stat: circuitNumber2PropagationsThatPruned=224
%%%mzn-stat: circuitNumber2PropagationsTotal=2409
%%%mzn-stat: AverageConflictSize=9.87034035656402
%%%mzn-stat: NumUnitNogoodsLearned=0
%%%mzn-stat: AverageLearnedNogoodLength=16.71799027552674
%%%mzn-stat: AverageBacktrackAmount=0
%%%mzn-stat: AverageLbd=5.580226904376013
%%%mzn-stat: 2AutonomousSearchNumBackupCalled=3479
%%%mzn-stat: 2AutonomousSearchNumPredicatesRemoved=0
%%%mzn-stat: 2AutonomousSearchNumCalls=3499
%%%mzn-stat: 2AutonomousSearchNumPredicatesAdded=2773
%%%mzn-stat: 2AutonomousSearchAverageSizeOfHeap=2.2820805944555587
%%%mzn-stat: 2AutonomousSearchNumAssignedPredicatesEncountered=7985
%%%mzn-stat-end
maxleg = 426;
succ = array1d(1..20,[2, 6, 1, 5, 10, 9, 12, 7, 13, 11, 15, 4, 14, 17, 20, 8, 16, 19, 3, 18]);
% time elapsed: 6.39 s
----------
%%%mzn-stat: initTime=0.003367372
%%%mzn-stat: objective=399
%%%mzn-stat: nodes=7687
%%%mzn-stat: restarts=0
%%%mzn-stat: peakDepth=261
%%%mzn-stat: solveTime=0.152080559
%%%mzn-stat: variables=504
%%%mzn-stat: propagators=356
%%%mzn-stat: failures=2033
%%%mzn-stat: propagations=106038
%%%mzn-stat: nogoods=2033
%%%mzn-stat: numAtomicConstraintsPropagated=0
%%%mzn-stat: allDifferentNumber1TotalHallSetSize=6647
%%%mzn-stat: allDifferentNumber1NumberOfConflicts=1359
%%%mzn-stat: allDifferentNumber1MaxHallSetSize=13
%%%mzn-stat: allDifferentNumber1PropagationsTotal=9251
%%%mzn-stat: allDifferentNumber1PropagationsThatFoundConflict=1359
%%%mzn-stat: circuitNumber2PropagationsThatFoundConflict=454
%%%mzn-stat: circuitNumber2TotalFixedEdgesAtConflict=7330
%%%mzn-stat: circuitNumber2NumberOfConflicts=454
%%%mzn-stat: circuitNumber2PropagationsThatPruned=930
%%%mzn-stat: circuitNumber2PropagationsTotal=5040
%%%mzn-stat: AverageConflictSize=14.567634038366945
%%%mzn-stat: NumUnitNogoodsLearned=0
%%%mzn-stat: AverageLearnedNogoodLength=32.16035415641908
%%%mzn-stat: AverageBacktrackAmount=0
%%%mzn-stat: AverageLbd=7.1824889326119035
%%%mzn-stat: 2AutonomousSearchNumBackupCalled=3596
%%%mzn-stat: 2AutonomousSearchNumPredicatesRemoved=0
%%%mzn-stat: 2AutonomousSearchNumCalls=3617
%%%mzn-stat: 2AutonomousSearchNumPredicatesAdded=3355
%%%mzn-stat: 2AutonomousSearchAverageSizeOfHeap=2.423831904893558
%%%mzn-stat: 2AutonomousSearchNumAssignedPredicatesEncountered=8767
%%%mzn-stat-end
maxleg = 399;
succ = array1d(1..20,[2, 7, 6, 5, 10, 9, 12, 1, 13, 11, 15, 4, 14, 17, 20, 8, 16, 19, 3, 18]);
% time elapsed: 6.50 s
----------
%%%mzn-stat: initTime=0.003367372
%%%mzn-stat: objective=388
%%%mzn-stat: nodes=7903
%%%mzn-stat: restarts=0
%%%mzn-stat: peakDepth=261
%%%mzn-stat: solveTime=0.15751244
%%%mzn-stat: variables=504
%%%mzn-stat: propagators=356
%%%mzn-stat: failures=2101
%%%mzn-stat: propagations=110098
%%%mzn-stat: nogoods=2101
%%%mzn-stat: numAtomicConstraintsPropagated=0
%%%mzn-stat: allDifferentNumber1TotalHallSetSize=6873
%%%mzn-stat: allDifferentNumber1NumberOfConflicts=1410
%%%mzn-stat: allDifferentNumber1MaxHallSetSize=13
%%%mzn-stat: allDifferentNumber1PropagationsTotal=9523
%%%mzn-stat: allDifferentNumber1PropagationsThatFoundConflict=1410
%%%mzn-stat: circuitNumber2PropagationsThatFoundConflict=466
%%%mzn-stat: circuitNumber2TotalFixedEdgesAtConflict=7514
%%%mzn-stat: circuitNumber2NumberOfConflicts=466
%%%mzn-stat: circuitNumber2PropagationsThatPruned=978
%%%mzn-stat: circuitNumber2PropagationsTotal=5184
%%%mzn-stat: AverageConflictSize=14.564017134697764
%%%mzn-stat: NumUnitNogoodsLearned=0
%%%mzn-stat: AverageLearnedNogoodLength=32.21085197524988
%%%mzn-stat: AverageBacktrackAmount=0
%%%mzn-stat: AverageLbd=7.2113279390766305
%%%mzn-stat: 2AutonomousSearchNumBackupCalled=3710
%%%mzn-stat: 2AutonomousSearchNumPredicatesRemoved=0
%%%mzn-stat: 2AutonomousSearchNumCalls=3732
%%%mzn-stat: 2AutonomousSearchNumPredicatesAdded=3790
%%%mzn-stat: 2AutonomousSearchAverageSizeOfHeap=2.560557341907824
%%%mzn-stat: 2AutonomousSearchNumAssignedPredicatesEncountered=9556
%%%mzn-stat-end
maxleg = 388;
succ = array1d(1..20,[2, 7, 6, 5, 10, 11, 8, 16, 13, 1, 12, 4, 15, 9, 20, 17, 14, 19, 3, 18]);
% time elapsed: 6.51 s
----------
==========
% time elapsed: 261.67 s
%%%mzn-stat: initTime=0.003367372
%%%mzn-stat: objective=388
%%%mzn-stat: nodes=2212762
%%%mzn-stat: restarts=0
%%%mzn-stat: peakDepth=261
%%%mzn-stat: solveTime=255.330713268
%%%mzn-stat: variables=504
%%%mzn-stat: propagators=356
%%%mzn-stat: failures=2187055
%%%mzn-stat: propagations=132127090
%%%mzn-stat: nogoods=2187055
%%%mzn-stat: numAtomicConstraintsPropagated=0
%%%mzn-stat: allDifferentNumber1TotalHallSetSize=201211
%%%mzn-stat: allDifferentNumber1NumberOfConflicts=44101
%%%mzn-stat: allDifferentNumber1MaxHallSetSize=14
%%%mzn-stat: allDifferentNumber1PropagationsTotal=5534267
%%%mzn-stat: allDifferentNumber1PropagationsThatFoundConflict=44101
%%%mzn-stat: circuitNumber2PropagationsThatFoundConflict=1583192
%%%mzn-stat: circuitNumber2TotalFixedEdgesAtConflict=26934451
%%%mzn-stat: circuitNumber2NumberOfConflicts=1583192
%%%mzn-stat: circuitNumber2PropagationsThatPruned=664389
%%%mzn-stat: circuitNumber2PropagationsTotal=3898024
%%%mzn-stat: AverageConflictSize=16.087731218465013
%%%mzn-stat: NumUnitNogoodsLearned=1
%%%mzn-stat: AverageLearnedNogoodLength=35.39232712483225
%%%mzn-stat: AverageBacktrackAmount=0
%%%mzn-stat: AverageLbd=8.420715071180194
%%%mzn-stat: 2AutonomousSearchNumBackupCalled=3710
%%%mzn-stat: 2AutonomousSearchNumPredicatesRemoved=0
%%%mzn-stat: 2AutonomousSearchNumCalls=3732
%%%mzn-stat: 2AutonomousSearchNumPredicatesAdded=4870
%%%mzn-stat: 2AutonomousSearchAverageSizeOfHeap=2.560557341907824
%%%mzn-stat: 2AutonomousSearchNumAssignedPredicatesEncountered=9556
%%%mzn-stat-end
